29 28
0 23 67
0 27 45
1 2 148
1 20 42
2 28 77
3 19 70
4 8 46
4 25 57
5 11 55
5 27 60
6 22 168
6 24 95
7 26 43
8 11 89
9 19 28
10 18 95
10 21 103
12 15 75
12 20 92
13 16 59
13 21 44
14 17 56
15 26 55
16 17 66
18 24 69
19 20 88
22 26 80
25 28 39